results_rootrelaxation/bin024_050_008.srr.sol
solution status: optimal solution found
objective value:                                    0
_var3736_                           0.217822747577357 	(obj:0)
_var6921_                          0.0683577571849965 	(obj:0)
_var6927_                          0.0284598784410881 	(obj:0)
_var6928_                           0.317829815168643 	(obj:0)
_var6929_                             0.1750085181961 	(obj:0)
_var6935_                           0.151399179387221 	(obj:0)
_var6938_                          0.0942360755538489 	(obj:0)
_var6939_                          0.0212283816403975 	(obj:0)
_var6943_                           0.112654523296294 	(obj:0)
_var6949_                          0.0689446892135128 	(obj:0)
_var6950_                           0.137048724903367 	(obj:0)
_var6951_                          0.0441504614452884 	(obj:0)
_var6956_                          0.0966571137038989 	(obj:0)
_var6957_                            0.13469627027379 	(obj:0)
_var6958_                          0.0165099720826054 	(obj:0)
_var6959_                           0.106077955594597 	(obj:0)
_var6963_                           0.266916020711022 	(obj:0)
_var6966_                          0.0805853443430331 	(obj:0)
_var6968_                            0.10987915409366 	(obj:0)
_var6969_                          0.0319054140130458 	(obj:0)
_var6970_                           0.132161787255934 	(obj:0)
_var6979_                          0.0338361932193615 	(obj:0)
_var6980_                           0.100057555354944 	(obj:0)
_var6983_                           0.232241252161773 	(obj:0)
_var6984_                           0.195449631982356 	(obj:0)
_var6989_                           0.106191655004121 	(obj:0)
_var6990_                          0.0971113863843343 	(obj:0)
_var6993_                           0.100002828109724 	(obj:0)
_var6994_                          0.0499257850200026 	(obj:0)
_var6996_                           0.146779879559597 	(obj:0)
_var6997_                          0.0586282698841522 	(obj:0)
_var6998_                          0.0226383173128977 	(obj:0)
_var6999_                           0.154553533016487 	(obj:0)
_var7008_                            0.17069793272173 	(obj:0)
_var7009_                           0.137339492209056 	(obj:0)
_var7010_                           0.109746920540731 	(obj:0)
_var7015_                           0.103736751605805 	(obj:0)
_var7017_                           0.108412579194391 	(obj:0)
_var7018_                           0.184766575773727 	(obj:0)
_var7019_                          0.0379845436377893 	(obj:0)
_var7020_                           0.103731287760117 	(obj:0)
_var7023_                          0.0876598670378202 	(obj:0)
_var7025_                           0.101752748757091 	(obj:0)
_var7026_                           0.185960645998837 	(obj:0)
_var7033_                          0.0366906055790045 	(obj:0)
_var7035_                           0.193948343277036 	(obj:0)
_var7038_                           0.056962332525567 	(obj:0)
_var7047_                          0.0193385679713194 	(obj:0)
_var7051_                           0.206199110148625 	(obj:0)
_var7060_                           0.230815635262344 	(obj:0)
_var7063_                           0.178123106959668 	(obj:0)
_var7073_                          0.0873529186143507 	(obj:0)
_var7075_                           0.306933910751505 	(obj:0)
_var7076_                            0.01663331584721 	(obj:0)
_var7077_                          0.0953315250810298 	(obj:0)
_var7082_                          0.0760549968355275 	(obj:0)
_var7083_                         0.00293983659638299 	(obj:0)
_var7086_                            0.11976282645293 	(obj:0)
_var7092_                           0.168584477727392 	(obj:0)
_var7093_                           0.199018607482531 	(obj:0)
_var7096_                           0.103260396629259 	(obj:0)
_var7097_                           0.241685085278568 	(obj:0)
_var7099_                          0.0932589807611053 	(obj:0)
_var7102_                           0.183142537567971 	(obj:0)
_var7103_                          0.0729998332737211 	(obj:0)
_var7104_                          0.0210316769690795 	(obj:0)
_var7105_                           0.269202096313178 	(obj:0)
_var7108_                           0.052773988505545 	(obj:0)
_var7113_                           0.171147486991344 	(obj:0)
_var7117_                           0.122542092124495 	(obj:0)
_var7119_                           0.045586481952643 	(obj:0)
_var7121_                           0.168809058130761 	(obj:0)
_var7124_                          0.0217211279257214 	(obj:0)
_var7126_                           0.118449241193605 	(obj:0)
_var7127_                          0.0200306922424216 	(obj:0)
_var7132_                          0.0832511644421902 	(obj:0)
_var7133_                           0.120016682497407 	(obj:0)
_var7134_                           0.124184216527969 	(obj:0)
_var7136_                           0.122022682491486 	(obj:0)
_var7138_                          0.0642705784019522 	(obj:0)
_var7139_                           0.355161470522381 	(obj:0)
_var7147_                           0.208808720415663 	(obj:0)
_var7148_                          0.0880486657900792 	(obj:0)
_var7149_                           0.171503873038318 	(obj:0)
_var7153_                          0.0656417403781356 	(obj:0)
_var7158_                           0.169582195107159 	(obj:0)
_var7165_                           0.126865975459441 	(obj:0)
_var7166_                           0.151493018204606 	(obj:0)
_var7168_                            0.19505977850514 	(obj:0)
_var7169_                          0.0927828438275745 	(obj:0)
_var7172_                          0.0790915852583598 	(obj:0)
_var7176_                          0.0874008145733709 	(obj:0)
_var7180_                           0.074460201431132 	(obj:0)
_var7183_                          0.0156875469642699 	(obj:0)
_var7184_                          0.0572447353503159 	(obj:0)
_var7185_                          0.0881257486757207 	(obj:0)
_var7192_                           0.111891679155086 	(obj:0)
_var7194_                          0.0150438071093288 	(obj:0)
_var7195_                          0.0720306569564118 	(obj:0)
_var7196_                          0.0829440904145385 	(obj:0)
_var7198_                           0.178644265183912 	(obj:0)
_var7200_                           0.213118829637682 	(obj:0)
_var7202_                           0.231867203294285 	(obj:0)
_var7208_                          0.0108548918639687 	(obj:0)
_var7210_                          0.0359164655771832 	(obj:0)
_var7211_                          0.0302555243486017 	(obj:0)
_var7212_                           0.041642308024056 	(obj:0)
_var7213_                          0.0204775084670418 	(obj:0)
_var7214_                           0.109919039377713 	(obj:0)
_var7216_                           0.150523166067837 	(obj:0)
_var7217_                           0.205212259674914 	(obj:0)
_var7218_                           0.134421610781768 	(obj:0)
_var7219_                          0.0784926670176679 	(obj:0)
_var7224_                           0.223256666600961 	(obj:0)
_var7227_                          0.0237369182362283 	(obj:0)
_var7228_                          0.0145906978928319 	(obj:0)
_var7230_                           0.150838451827621 	(obj:0)
_var7231_                          0.0659051240976015 	(obj:0)
_var7232_                          0.0231886906039351 	(obj:0)
_var7233_                          0.0754253717245132 	(obj:0)
_var7235_                           0.152557195546618 	(obj:0)
_var7239_                           0.112857728639566 	(obj:0)
_var7240_                          0.0288616024190364 	(obj:0)
_var7241_                          0.0632809724961667 	(obj:0)
_var7243_                          0.0490360879481465 	(obj:0)
_var7244_                          0.0823529289723597 	(obj:0)
_var7245_                           0.167647696083526 	(obj:0)
_var7247_                           0.074380709506413 	(obj:0)
_var7248_                           0.140418129003718 	(obj:0)
_var7249_                          0.0843672146540625 	(obj:0)
_var7250_                         0.00288677831915158 	(obj:0)
_var7251_                           0.147549264783003 	(obj:0)
_var7252_                          0.0402501508836243 	(obj:0)
_var7254_                          0.0106356771077266 	(obj:0)
_var7257_                          0.0841416213913982 	(obj:0)
_var7262_                            0.01273840238732 	(obj:0)
_var7264_                           0.181915971736928 	(obj:0)
_var7265_                             0.2193323517215 	(obj:0)
_var7266_                           0.120102427036733 	(obj:0)
_var7268_                         0.00966623494660993 	(obj:0)
_var7270_                         0.00631903695148061 	(obj:0)
_var7272_                           0.107465256964337 	(obj:0)
_var7276_                           0.068336594325085 	(obj:0)
_var7277_                           0.130343540569975 	(obj:0)
_var7280_                          0.0458486143544172 	(obj:0)
_var7281_                         0.000439617811213124 	(obj:0)
_var7283_                           0.108384590011838 	(obj:0)
_var7284_                          0.0731097056852789 	(obj:0)
_var7286_                          0.0113737559366628 	(obj:0)
_var7291_                          0.0255438375942634 	(obj:0)
_var7294_                          0.0446814655659332 	(obj:0)
_var7295_                          0.0113385001903717 	(obj:0)
_var7296_                          0.0204059437810253 	(obj:0)
_var7297_                           0.040630862647906 	(obj:0)
_var7298_                           0.300232910334778 	(obj:0)
_var7299_                           0.146203147638637 	(obj:0)
_var7301_                          0.0721032851655239 	(obj:0)
_var7302_                          0.0214388834009524 	(obj:0)
_var7305_                          0.0103944310884473 	(obj:0)
_var7306_                          0.0663928573853289 	(obj:0)
_var7309_                          0.0630361674437958 	(obj:0)
_var7310_                          0.0663849301193938 	(obj:0)
_var7313_                           0.021855861320505 	(obj:0)
_var7314_                          0.0192256346708001 	(obj:0)
_var7317_                          0.0874374629393805 	(obj:0)
_var7318_                          0.0636939029599476 	(obj:0)
_var7319_                          0.0540326133822014 	(obj:0)
_var7320_                          0.0870835401159882 	(obj:0)
_var7321_                           0.057832488810663 	(obj:0)
_var7322_                         0.00854988331413142 	(obj:0)
_var7324_                          0.0428858639482817 	(obj:0)
_var7325_                         5.96491513897426e-05 	(obj:0)
_var7330_                           0.207816433417365 	(obj:0)
_var7331_                          0.0812659149499951 	(obj:0)
_var7335_                          0.0426276952511754 	(obj:0)
_var7336_                          0.0363585034876523 	(obj:0)
_var7337_                          0.0617811702387569 	(obj:0)
_var7338_                           0.135171368503745 	(obj:0)
_var7339_                          0.0489999064418375 	(obj:0)
_var7340_                         0.00693488910613909 	(obj:0)
_var7344_                           0.166532389438657 	(obj:0)
_var7345_                           0.117659569688077 	(obj:0)
_var7346_                          0.0119805625269614 	(obj:0)
_var7347_                           0.049516999091804 	(obj:0)
_var7348_                           0.151407572694475 	(obj:0)
_var7349_                           0.110147649423802 	(obj:0)
_var7351_                           0.143723867739776 	(obj:0)
_var7352_                          0.0290688497643243 	(obj:0)
_var7353_                           0.109880259911766 	(obj:0)
_var7354_                         0.000212383885070551 	(obj:0)
_var7355_                            0.01487573992496 	(obj:0)
_var7360_                           0.134433988922472 	(obj:0)
_var7361_                          0.0534038878369457 	(obj:0)
_var7362_                          0.0781558706238252 	(obj:0)
_var7364_                          0.0150233666546084 	(obj:0)
_var7368_                          0.0205910475377468 	(obj:0)
_var7369_                           0.016321020784816 	(obj:0)
_var7370_                          0.0112220367620247 	(obj:0)
_var7371_                          0.0229874513054565 	(obj:0)
_var7372_                            0.05994088653761 	(obj:0)
_var7376_                          0.0569207961319438 	(obj:0)
_var7380_                          0.0196893985221575 	(obj:0)
_var7381_                           0.102480712214731 	(obj:0)
_var7382_                           0.129146255546868 	(obj:0)
_var7384_                           0.129875596690253 	(obj:0)
_var7385_                          0.0294123478063028 	(obj:0)
_var7386_                          0.0306589860347828 	(obj:0)
_var7387_                         0.000395465361571531 	(obj:0)
_var7388_                         0.00939429474978429 	(obj:0)
_var7389_                          0.0673614129810249 	(obj:0)
_var7390_                          0.0275410696431237 	(obj:0)
_var7393_                          0.0790198488995232 	(obj:0)
_var7394_                           0.125626401736983 	(obj:0)
_var7395_                           0.100137592798875 	(obj:0)
_var7397_                          0.0703544146211306 	(obj:0)
_var7398_                          0.0307778624792972 	(obj:0)
_var7401_                          0.0254759707065771 	(obj:0)
_var7404_                          0.0588535663781195 	(obj:0)
_var7406_                           0.103081271900801 	(obj:0)
_var7407_                            0.13538030969264 	(obj:0)
_var7409_                          0.0492880322880606 	(obj:0)
_var7410_                          0.0169897174207723 	(obj:0)
_var7412_                             0.1078009277926 	(obj:0)
_var7413_                          0.0690218994776249 	(obj:0)
_var7414_                          0.0573613787496881 	(obj:0)
_var7415_                          0.0130199918089417 	(obj:0)
_var7418_                         0.00557799962137362 	(obj:0)
_var7421_                          0.0275139498323785 	(obj:0)
_var7422_                          0.0179331189721648 	(obj:0)
_var7424_                           0.116280421643241 	(obj:0)
_var7425_                           0.023487878943102 	(obj:0)
_var7427_                           0.116173274453058 	(obj:0)
_var7428_                          0.0370930970074856 	(obj:0)
_var7429_                          0.0394128093452814 	(obj:0)
_var7430_                          0.0241441401408529 	(obj:0)
_var7433_                           0.151809131293392 	(obj:0)
_var7436_                           0.120290928749424 	(obj:0)
_var7438_                         0.00995732609835962 	(obj:0)
_var7439_                          0.0464026398273924 	(obj:0)
_var7440_                          0.0373842019539221 	(obj:0)
_var7441_                          0.0329751873984032 	(obj:0)
_var7444_                         0.00288124607238954 	(obj:0)
_var7451_                           0.101426620265285 	(obj:0)
_var7452_                         0.00145114737994351 	(obj:0)
_var7457_                            0.19562142216625 	(obj:0)
_var7458_                           0.035982546232936 	(obj:0)
_var7462_                          0.0932272444423216 	(obj:0)
_var7463_                          0.0472022288970677 	(obj:0)
_var7465_                          0.0341783488561733 	(obj:0)
_var7466_                          0.0470655570395654 	(obj:0)
_var7467_                          0.0304238224270708 	(obj:0)
_var7470_                          0.0772312290805806 	(obj:0)
_var7472_                          0.0599176331499033 	(obj:0)
_var7474_                          0.0503417100440699 	(obj:0)
_var7475_                          0.0919833198653085 	(obj:0)
_var7476_                          0.0126129438982136 	(obj:0)
_var7483_                          0.0527002684015328 	(obj:0)
_var7484_                          0.0693374704896979 	(obj:0)
_var7486_                          0.0618373019304836 	(obj:0)
_var7488_                          0.0623013958225612 	(obj:0)
_var7491_                          0.0368650942918434 	(obj:0)
_var7493_                          0.0249803165831128 	(obj:0)
_var7494_                          0.0164334462022262 	(obj:0)
_var7497_                          0.0125732498559793 	(obj:0)
_var7498_                         0.000125835956317877 	(obj:0)
_var7499_                          0.0113543197284657 	(obj:0)
_var7501_                          0.0349858842830506 	(obj:0)
_var7504_                         0.00818374256188145 	(obj:0)
_var7505_                          0.0480570826813441 	(obj:0)
_var7508_                         0.00982249587697094 	(obj:0)
_var7511_                         0.00342596471298245 	(obj:0)
_var7514_                         0.00554222916382044 	(obj:0)
_var7515_                         0.00761704280874942 	(obj:0)
_var7518_                         0.00518162404224799 	(obj:0)
_var7520_                         0.00657288236349814 	(obj:0)
